p cnf 14 23
14 -12 -4 0
14 -12 -1 0
-14 10 5 0
14 -10 4 0
14 -7 4 0
-14 -4 2 0
-13 9 6 0
13 9 3 0
-12 11 8 0
-12 -9 7 0
12 9 4 0
-12 -8 -1 0
-12 -6 2 0
-11 10 3 0
-11 -8 4 0
10 2 -1 0
9 -7 -6 0
-9 6 2 0
-8 6 3 0
8 3 -1 0
-7 4 3 0
7 3 1 0
7 -3 -1 0
